runtime_files/mcpfd.tsp
NAME : mcpfd
COMMENT : file for mcpfd test
TYPE : ATSP
DIMENSION : 40
EDGE_WEIGHT_TYPE : EXPLICIT
EDGE_WEIGHT_FORMAT : FULL_MATRIX
EDGE_WEIGHT_SECTION
1999999 1999999 1999999 1999999 1999999 1999999 1999999 1999999 1999999 1999999 7046 1999999 1999999 1999999 1999999 1999999 1999999 1999999 1999999 1999999 1999999 1999999 1999999 1999999 1999999 1999999 1999999 1999999 1999999 7047 -7000 1999999 1999999 1999999 1999999 1999999 1999999 1999999 1999999 1999999 
1999999 1999999 1999999 1999999 1999999 1999999 1999999 1999999 1999999 1999999 1999999 -7000 7053 1999999 1999999 1999999 1999999 1999999 1999999 1999999 1999999 1999999 1999999 1999999 1999999 1999999 1999999 1999999 1999999 1999999 1999999 7037 1999999 1999999 1999999 1999999 1999999 1999999 1999999 1999999 
1999999 1999999 1999999 1999999 1999999 1999999 1999999 1999999 1999999 1999999 1999999 1999999 1999999 7041 7042 1999999 1999999 1999999 1999999 1999999 1999999 1999999 1999999 1999999 1999999 1999999 1999999 1999999 1999999 1999999 1999999 1999999 -7000 1999999 1999999 1999999 1999999 1999999 1999999 1999999 
1999999 1999999 1999999 1999999 1999999 1999999 1999999 1999999 1999999 1999999 1999999 1999999 1999999 1999999 1999999 7066 -7000 1999999 1999999 1999999 1999999 1999999 1999999 1999999 1999999 1999999 1999999 1999999 1999999 1999999 1999999 1999999 1999999 7028 1999999 1999999 1999999 1999999 1999999 1999999 
1999999 1999999 1999999 1999999 1999999 1999999 1999999 1999999 1999999 1999999 1999999 1999999 1999999 1999999 1999999 1999999 1999999 7044 -7000 1999999 1999999 1999999 1999999 1999999 1999999 1999999 1999999 1999999 1999999 1999999 1999999 1999999 1999999 1999999 7031 1999999 1999999 1999999 1999999 1999999 
1999999 1999999 1999999 1999999 1999999 1999999 1999999 1999999 1999999 1999999 1999999 1999999 1999999 1999999 1999999 1999999 1999999 1999999 1999999 7052 -7000 1999999 1999999 1999999 1999999 1999999 1999999 1999999 1999999 1999999 1999999 1999999 1999999 1999999 1999999 7028 1999999 1999999 1999999 1999999 
1999999 1999999 1999999 1999999 1999999 1999999 1999999 1999999 1999999 1999999 1999999 1999999 1999999 1999999 1999999 1999999 1999999 1999999 1999999 1999999 1999999 7030 7021 1999999 1999999 1999999 1999999 1999999 1999999 1999999 1999999 1999999 1999999 1999999 1999999 1999999 -7000 1999999 1999999 1999999 
1999999 1999999 1999999 1999999 1999999 1999999 1999999 1999999 1999999 1999999 1999999 1999999 1999999 1999999 1999999 1999999 1999999 1999999 1999999 1999999 1999999 1999999 1999999 -7000 7057 1999999 1999999 1999999 1999999 1999999 1999999 1999999 1999999 1999999 1999999 1999999 1999999 7014 1999999 1999999 
1999999 1999999 1999999 1999999 1999999 1999999 1999999 1999999 1999999 1999999 1999999 1999999 1999999 1999999 1999999 1999999 1999999 1999999 1999999 1999999 1999999 1999999 1999999 1999999 1999999 -7000 7031 1999999 1999999 1999999 1999999 1999999 1999999 1999999 1999999 1999999 1999999 1999999 7033 1999999 
1999999 1999999 1999999 1999999 1999999 1999999 1999999 1999999 1999999 1999999 1999999 1999999 1999999 1999999 1999999 1999999 1999999 1999999 1999999 1999999 1999999 1999999 1999999 1999999 1999999 1999999 1999999 7028 -7000 1999999 1999999 1999999 1999999 1999999 1999999 1999999 1999999 1999999 1999999 7022 
1999999 1999999 1999999 1999999 1999999 1999999 1999999 1999999 1999999 1999999 1999999 0 -7000 1999999 1999999 1999999 1999999 1999999 1999999 1999999 1999999 1999999 1999999 1999999 1999999 1999999 1999999 1999999 1999999 1999999 1999999 7031 1999999 1999999 1999999 1999999 1999999 1999999 1999999 1999999 
1999999 1999999 1999999 1999999 1999999 1999999 1999999 1999999 1999999 1999999 0 1999999 1999999 1999999 1999999 1999999 1999999 1999999 1999999 1999999 1999999 1999999 1999999 1999999 1999999 1999999 1999999 1999999 1999999 7034 7031 1999999 1999999 1999999 1999999 1999999 1999999 1999999 1999999 1999999 
1999999 1999999 1999999 1999999 1999999 1999999 1999999 1999999 1999999 1999999 1999999 1999999 1999999 0 7062 1999999 1999999 1999999 1999999 1999999 1999999 1999999 1999999 1999999 1999999 1999999 1999999 1999999 1999999 1999999 1999999 1999999 7021 1999999 1999999 1999999 1999999 1999999 1999999 1999999 
1999999 1999999 1999999 1999999 1999999 1999999 1999999 1999999 1999999 1999999 1999999 7051 0 1999999 1999999 1999999 1999999 1999999 1999999 1999999 1999999 1999999 1999999 1999999 1999999 1999999 1999999 1999999 1999999 1999999 1999999 1999999 1999999 1999999 1999999 1999999 1999999 1999999 1999999 1999999 
1999999 1999999 1999999 1999999 1999999 1999999 1999999 1999999 1999999 1999999 1999999 1999999 1999999 1999999 1999999 0 7053 1999999 1999999 1999999 1999999 1999999 1999999 1999999 1999999 1999999 1999999 1999999 1999999 1999999 1999999 1999999 1999999 -7000 1999999 1999999 1999999 1999999 1999999 1999999 
1999999 1999999 1999999 1999999 1999999 1999999 1999999 1999999 1999999 1999999 1999999 1999999 1999999 7062 0 1999999 1999999 1999999 1999999 1999999 1999999 1999999 1999999 1999999 1999999 1999999 1999999 1999999 1999999 1999999 1999999 1999999 7022 1999999 1999999 1999999 1999999 1999999 1999999 1999999 
1999999 1999999 1999999 1999999 1999999 1999999 1999999 1999999 1999999 1999999 1999999 1999999 1999999 1999999 1999999 1999999 1999999 0 7051 1999999 1999999 1999999 1999999 1999999 1999999 1999999 1999999 1999999 1999999 1999999 1999999 1999999 1999999 1999999 7040 1999999 1999999 1999999 1999999 1999999 
1999999 1999999 1999999 1999999 1999999 1999999 1999999 1999999 1999999 1999999 1999999 1999999 1999999 1999999 1999999 -7000 0 1999999 1999999 1999999 1999999 1999999 1999999 1999999 1999999 1999999 1999999 1999999 1999999 1999999 1999999 1999999 1999999 7045 1999999 1999999 1999999 1999999 1999999 1999999 
1999999 1999999 1999999 1999999 1999999 1999999 1999999 1999999 1999999 1999999 1999999 1999999 1999999 1999999 1999999 1999999 1999999 1999999 1999999 0 7047 1999999 1999999 1999999 1999999 1999999 1999999 1999999 1999999 1999999 1999999 1999999 1999999 1999999 1999999 7021 1999999 1999999 1999999 1999999 
1999999 1999999 1999999 1999999 1999999 1999999 1999999 1999999 1999999 1999999 1999999 1999999 1999999 1999999 1999999 1999999 1999999 7051 0 1999999 1999999 1999999 1999999 1999999 1999999 1999999 1999999 1999999 1999999 1999999 1999999 1999999 1999999 1999999 -7000 1999999 1999999 1999999 1999999 1999999 
1999999 1999999 1999999 1999999 1999999 1999999 1999999 1999999 1999999 1999999 1999999 1999999 1999999 1999999 1999999 1999999 1999999 1999999 1999999 1999999 1999999 0 7032 1999999 1999999 1999999 1999999 1999999 1999999 1999999 1999999 1999999 1999999 1999999 1999999 1999999 7028 1999999 1999999 1999999 
1999999 1999999 1999999 1999999 1999999 1999999 1999999 1999999 1999999 1999999 1999999 1999999 1999999 1999999 1999999 1999999 1999999 1999999 1999999 7047 0 1999999 1999999 1999999 1999999 1999999 1999999 1999999 1999999 1999999 1999999 1999999 1999999 1999999 1999999 -7000 1999999 1999999 1999999 1999999 
1999999 1999999 1999999 1999999 1999999 1999999 1999999 1999999 1999999 1999999 1999999 1999999 1999999 1999999 1999999 1999999 1999999 1999999 1999999 1999999 1999999 1999999 1999999 0 7056 1999999 1999999 1999999 1999999 1999999 1999999 1999999 1999999 1999999 1999999 1999999 1999999 -7000 1999999 1999999 
1999999 1999999 1999999 1999999 1999999 1999999 1999999 1999999 1999999 1999999 1999999 1999999 1999999 1999999 1999999 1999999 1999999 1999999 1999999 1999999 1999999 7032 0 1999999 1999999 1999999 1999999 1999999 1999999 1999999 1999999 1999999 1999999 1999999 1999999 1999999 7029 1999999 1999999 1999999 
1999999 1999999 1999999 1999999 1999999 1999999 1999999 1999999 1999999 1999999 1999999 1999999 1999999 1999999 1999999 1999999 1999999 1999999 1999999 1999999 1999999 1999999 1999999 1999999 1999999 0 7040 1999999 1999999 1999999 1999999 1999999 1999999 1999999 1999999 1999999 1999999 1999999 -7000 1999999 
1999999 1999999 1999999 1999999 1999999 1999999 1999999 1999999 1999999 1999999 1999999 1999999 1999999 1999999 1999999 1999999 1999999 1999999 1999999 1999999 1999999 1999999 1999999 7056 0 1999999 1999999 1999999 1999999 1999999 1999999 1999999 1999999 1999999 1999999 1999999 1999999 7032 1999999 1999999 
1999999 1999999 1999999 1999999 1999999 1999999 1999999 1999999 1999999 1999999 1999999 1999999 1999999 1999999 1999999 1999999 1999999 1999999 1999999 1999999 1999999 1999999 1999999 1999999 1999999 1999999 1999999 0 7034 1999999 1999999 1999999 1999999 1999999 1999999 1999999 1999999 1999999 1999999 -7000 
1999999 1999999 1999999 1999999 1999999 1999999 1999999 1999999 1999999 1999999 1999999 1999999 1999999 1999999 1999999 1999999 1999999 1999999 1999999 1999999 1999999 1999999 1999999 1999999 1999999 7040 0 1999999 1999999 1999999 1999999 1999999 1999999 1999999 1999999 1999999 1999999 1999999 7027 1999999 
1999999 1999999 1999999 1999999 1999999 1999999 1999999 1999999 1999999 1999999 7034 1999999 1999999 1999999 1999999 1999999 1999999 1999999 1999999 1999999 1999999 1999999 1999999 1999999 1999999 1999999 1999999 1999999 1999999 0 7034 1999999 1999999 1999999 1999999 1999999 1999999 1999999 1999999 1999999 
1999999 1999999 1999999 1999999 1999999 1999999 1999999 1999999 1999999 1999999 1999999 1999999 1999999 1999999 1999999 1999999 1999999 1999999 1999999 1999999 1999999 1999999 1999999 1999999 1999999 1999999 1999999 -7000 0 1999999 1999999 1999999 1999999 1999999 1999999 1999999 1999999 1999999 1999999 7034 
0 0 0 0 0 0 0 0 0 0 1999999 1999999 1999999 1999999 1999999 1999999 1999999 1999999 1999999 1999999 1999999 1999999 1999999 1999999 1999999 1999999 1999999 1999999 1999999 1999999 0 1999999 1999999 1999999 1999999 1999999 1999999 1999999 1999999 1999999 
0 0 0 0 0 0 0 0 0 0 1999999 1999999 1999999 1999999 1999999 1999999 1999999 1999999 1999999 1999999 1999999 1999999 1999999 1999999 1999999 1999999 1999999 1999999 1999999 1999999 1999999 0 1999999 1999999 1999999 1999999 1999999 1999999 1999999 1999999 
0 0 0 0 0 0 0 0 0 0 1999999 1999999 1999999 1999999 1999999 1999999 1999999 1999999 1999999 1999999 1999999 1999999 1999999 1999999 1999999 1999999 1999999 1999999 1999999 1999999 1999999 1999999 0 1999999 1999999 1999999 1999999 1999999 1999999 1999999 
0 0 0 0 0 0 0 0 0 0 1999999 1999999 1999999 1999999 1999999 1999999 1999999 1999999 1999999 1999999 1999999 1999999 1999999 1999999 1999999 1999999 1999999 1999999 1999999 1999999 1999999 1999999 1999999 0 1999999 1999999 1999999 1999999 1999999 1999999 
0 0 0 0 0 0 0 0 0 0 1999999 1999999 1999999 1999999 1999999 1999999 1999999 1999999 1999999 1999999 1999999 1999999 1999999 1999999 1999999 1999999 1999999 1999999 1999999 1999999 1999999 1999999 1999999 1999999 0 1999999 1999999 1999999 1999999 1999999 
0 0 0 0 0 0 0 0 0 0 1999999 1999999 1999999 1999999 1999999 1999999 1999999 1999999 1999999 1999999 1999999 1999999 1999999 1999999 1999999 1999999 1999999 1999999 1999999 1999999 1999999 1999999 1999999 1999999 1999999 0 1999999 1999999 1999999 1999999 
0 0 0 0 0 0 0 0 0 0 1999999 1999999 1999999 1999999 1999999 1999999 1999999 1999999 1999999 1999999 1999999 1999999 1999999 1999999 1999999 1999999 1999999 1999999 1999999 1999999 1999999 1999999 1999999 1999999 1999999 1999999 0 1999999 1999999 1999999 
0 0 0 0 0 0 0 0 0 0 1999999 1999999 1999999 1999999 1999999 1999999 1999999 1999999 1999999 1999999 1999999 1999999 1999999 1999999 1999999 1999999 1999999 1999999 1999999 1999999 1999999 1999999 1999999 1999999 1999999 1999999 1999999 0 1999999 1999999 
0 0 0 0 0 0 0 0 0 0 1999999 1999999 1999999 1999999 1999999 1999999 1999999 1999999 1999999 1999999 1999999 1999999 1999999 1999999 1999999 1999999 1999999 1999999 1999999 1999999 1999999 1999999 1999999 1999999 1999999 1999999 1999999 1999999 0 1999999 
0 0 0 0 0 0 0 0 0 0 1999999 1999999 1999999 1999999 1999999 1999999 1999999 1999999 1999999 1999999 1999999 1999999 1999999 1999999 1999999 1999999 1999999 1999999 1999999 1999999 1999999 1999999 1999999 1999999 1999999 1999999 1999999 1999999 1999999 0 
