runtime_files/mcpfd.tour
NAME : mcpfd.-97865.tour
COMMENT : Length = -97865
COMMENT : Found by LKH [Keld Helsgaun] Thu Sep 19 22:36:34 2024
TYPE : TOUR
DIMENSION : 40
TOUR_SECTION
1
31
7
37
8
24
23
38
3
33
2
13
14
12
11
32
6
21
22
36
10
29
30
28
27
40
5
19
20
35
4
17
18
16
15
34
9
26
25
39
-1
EOF
